c --- [ banner ] -------------------------------------------------------------
c 
c CaDiCaL Radically Simplified CDCL SAT Solver
c Copyright (c) 2016-2021 A. Biere, M. Fleury, N. Froleyks
c 
c Version 1.5.2 ca9bff05c11bde5eae4912f9932871d1527e61d8
c g++ (GCC) 9.3.0 -Wall -Wextra -O3 -DNDEBUG
c Sun May 1 02:23:23 EDT 2022 Linux gra-login1 3.10.0-1160.59.1.el7.x86_64 x86_64
c 
c --- [ limit ] --------------------------------------------------------------
c 
c setting conflict limit to 200000 conflicts (due to '200000')
c 
c --- [ parsing input ] ------------------------------------------------------
c 
c reading DIMACS file from '26.cubes638.adj'
c opening file to read '26.cubes638.adj'
c found 'p cnf 5320 924214' header
c parsed 924214 clauses in 7.98 seconds process time
c closing file '26.cubes638.adj'
c after reading 686668144 bytes 654.9 MB
c 
c --- [ options ] ------------------------------------------------------------
c 
c all options are set to their default value
c 
c --- [ solving ] ------------------------------------------------------------
c 
c time measured in process time since initialization
c 
c  seconds   reductions  redundant  irredundant
c          MB    restarts       trail      variables
c           level   conflicts       glue        remaining
c 
c *  7.98 690  0 0   0    0    0  0% 0 923580 4077 77%
c {  8.69 728  0 0   0    0    0  0% 0 923580 4077 77%
c i  9.18 736 154 0   0   27   21 46% 10 923580 4059 76%
c i  9.82 744 104 0   6  118  102 49% 18 923580 4055 76%
c i 10.23 747 105 0  18  174  147 49% 32 923580 4054 76%
c i 10.24 747 105 0  18  177  149 49% 32 923580 4053 76%
c i 10.24 747 104 0  19  178  149 49% 32 923580 4052 76%
c i 10.74 749 74 0  27  292  198 45% 24 923580 4051 76%
c - 12.46 732 75 1  27  300  203 45% 25 254768 4051 76%
c i 12.99 698 81 1  38  349  244 46% 28 254768 4050 76%
c i 13.52 698 77 1  50  632  447 47% 24 254768 4049 76%
c i 13.60 698 81 1  54  701  496 47% 25 254768 4048 76%
c i 13.70 699 77 1  63  762  514 47% 24 254768 4047 76%
c i 13.72 699 77 1  63  771  522 47% 24 254768 4046 76%
c i 13.87 699 82 1  63  831  568 47% 23 254768 4045 76%
c i 13.90 699 82 1  63  839  574 47% 23 254768 4044 76%
c i 13.92 699 83 1  63  852  582 47% 24 254768 4043 76%
c i 14.38 699 83 1  79  931  644 47% 25 254768 4042 76%
c } 14.94 699 82 1  92 1000  706 47% 25 254768 4042 76%
c [ 14.94 699  0 1  92 1000  706  0% 0 254768 4042 76%
c 
c  seconds   reductions  redundant  irredundant
c          MB    restarts       trail      variables
c           level   conflicts       glue        remaining
c 
c O 14.95 699 85 1  92 1002  708 33% 2 254768 4042 76%
c i 15.16 699 24 1  92 1046  741 45% 11 254768 4041 76%
c i 15.23 699 30 1  92 1095  781 49% 20 254768 4040 76%
c i 15.28 699 29 1  92 1117  798 50% 19 254768 4039 76%
c i 15.28 699 29 1  92 1121  801 50% 19 254768 4038 76%
c - 15.62 805 30 2  92 1146  742 50% 21 254729 4038 76%
c i 15.70 806 29 2  92 1263  822 52% 23 254729 4037 76%
c i 15.80 806 28 2  92 1593 1055 53% 23 254729 4036 76%
c i 15.85 806 30 2  92 1723 1152 52% 24 254729 4035 76%
c i 15.86 806 30 2  92 1740 1159 52% 24 254729 4034 76%
c i 15.95 805 31 2  93 2078 1415 53% 26 254729 4033 76%
c i 15.95 805 31 2  93 2082 1416 53% 26 254729 4032 76%
c i 15.99 805 31 2  93 2204 1498 53% 26 254729 4031 76%
c i 16.04 805 31 2  93 2359 1605 53% 25 254729 4030 76%
c - 16.25 786 31 3  93 2413 1307 53% 25 254705 4030 76%
c ] 16.65 786 29 3  93 3000 1761 41% 25 254705 4030 76%
c { 16.65 786 82 3  93 3000 1761 62% 25 254705 4030 76%
c F 16.68 786 82 3  95 3004 1765 62% 25 254705 4030 76%
c i 16.80 786 78 3  98 3088 1826 60% 25 254705 4029 76%
c i 16.85 786 77 3 100 3120 1854 59% 25 254705 4028 76%
c 
c  seconds   reductions  redundant   irredundant
c          MB    restarts       trail       variables
c           level   conflicts       glue         remaining
c 
c i 16.86 786 77 3 101 3129 1862 59% 25 254705 4027 76%
c i 16.89 786 77 3 103 3137 1869 59% 25 254705 4026 76%
c i 17.15 786 75 3 118 3319 2024 55% 25 254705 4025 76%
c i 17.15 786 75 3 118 3322 2026 55% 25 254705 4024 76%
c - 17.69 785 58 4 138 4100 1857 50% 24 254687 4024 76%
c d 19.02 784 57 4 210 5000 2590 46% 24 206814 4020 76%
c 3 19.04 784 57 4 210 5000 3663 46% 24 206814 4020 76%
c 2 19.08 785 57 4 210 5000 3708 46% 24 206721 4020 76%
c p 20.50 784 57 4 210 5000 10152 46% 24 206721 3905 73%
c d 20.77 784 57 4 210 5000 8324 46% 24 166064 3903 73%
c # 21.28 785 49 4 213 6005 9001 44% 22 166064 3903 73%
c - 21.62 741 47 5 213 6212 2530 44% 21 166064 3903 73%
c } 22.83 741 47 5 304 7000 3163 43% 22 166064 3903 73%
c [ 22.83 741 29 5 304 7000 3163 41% 25 166064 3903 73%
c - 23.32 741 28 6 305 8410 2780 42% 24 166064 3903 73%
c I 23.82 741 37 6 306 10006 4093 42% 30 166064 3903 73%
c - 24.38 741 40 7 307 10972 3424 41% 31 166064 3903 73%
c - 25.46 741 41 8 309 13901 3707 40% 33 166064 3903 73%
c ] 25.86 741 42 8 309 15000 4444 40% 34 166064 3903 73%
c { 25.86 741 47 8 309 15000 4444 43% 22 166064 3903 73%
c 
c  seconds   reductions   redundant   irredundant
c          MB    restarts        trail       variables
c           level    conflicts       glue         remaining
c 
c 2 25.91 741 47 8 309 15000 6010 43% 22 166047 3903 73%
c p 26.61 741 47 8 309 15000 10745 43% 22 166047 3901 73%
c d 26.71 741 47 8 309 15000 10603 43% 22 166041 3900 73%
c B 26.80 741 48 8 310 15011 10614 43% 22 166041 3900 73%
c s 27.77 741 48 8 450 15650 10891 42% 24 163889 3900 73%
c v 29.31 741 48 8 450 15650 10891 42% 24 163785 3900 73%
c w 29.35 741 48 8 450 15650 10883 42% 24 163785 3900 73%
c t 29.36 741 48 8 450 15650 10860 42% 24 163722 3900 73%
c e 29.69 741 48 8 450 15650 6639 42% 24 158609 1272 24%
c s 29.77 741 48 8 450 15650 6639 42% 24 158592 1272 24%
c - 32.87 683 49 9 620 17197 4450 56% 24 158592 1272 24%
c - 35.24 683 40 10 643 20797 4889 59% 22 158592 1272 24%
c W 35.59 683 40 10 643 21012 5032 59% 21 158592 1272 24%
c - 39.96 683 40 11 934 24757 5765 59% 22 158592 1272 24%
c F 40.89 683 36 11 967 28015 7928 59% 21 158592 1272 24%
c - 42.38 683 36 12 1056 29080 6152 59% 21 158592 1272 24%
c p 46.15 683 37 12 1198 30000 10342 59% 22 158592 1269 24%
c i 47.26 683 37 12 1280 30757 10859 59% 22 158592 1268 24%
c } 47.46 682 37 12 1290 31002 11051 59% 22 158592 1268 24%
c [ 47.46 683 42 12 1290 31002 11051 128% 34 158592 1268 24%
c 
c  seconds   reductions     redundant    irredundant
c          MB     restarts         trail        variables
c           level      conflicts        glue         remaining
c 
c - 48.48 683 41 13 1291 33761 7202 111% 33 158580 1268 24%
c B 49.27 683 40 13 1293 36018 8872 102% 33 158580 1268 24%
c - 50.07 683 39 14 1295 38803 7478 95% 32 158580 1268 24%
c s 51.45 683 37 14 1297 43499 10290 88% 31 158513 1268 24%
c v 53.24 683 37 14 1297 43499 10290 88% 31 158471 1268 24%
c e 53.57 686 37 14 1297 43499 10289 88% 31 158460 1252 24%
c s 53.70 686 37 14 1297 43499 10289 88% 31 158430 1252 24%
c - 54.36 686 37 15 1297 44204 7137 87% 31 158430 1252 24%
c W 55.07 686 36 15 1297 45021 7601 86% 30 158430 1252 24%
c - 56.29 686 33 16 1298 49966 7077 81% 28 158430 1252 24%
c p 56.74 686 33 16 1298 50000 10178 81% 28 158430 1252 24%
c O 58.14 686 32 16 1299 55024 13417 78% 27 158430 1252 24%
c - 58.39 686 32 17 1300 56085 7874 78% 27 158430 1252 24%
c - 59.57 686 30 18 1304 62564 8124 75% 26 158430 1252 24%
c ] 59.66 686 30 18 1305 63005 8443 75% 26 158430 1252 24%
c { 59.66 686 37 18 1305 63005 8443 59% 22 158430 1252 24%
c B 60.28 686 35 18 1307 66027 10582 60% 21 158430 1252 24%
c - 62.54 686 33 19 1424 69404 8980 60% 21 158430 1252 24%
c p 68.55 686 33 19 1848 75000 16818 60% 21 158430 1249 23%
c - 70.10 686 33 20 1949 76604 10081 60% 21 158421 1249 23%
c 
c  seconds   reductions      redundant   irredundant
c          MB     restarts          trail       variables
c           level      conflicts        glue         remaining
c 
c W 70.60 686 32 20 1955 78028 11141 60% 21 158421 1249 23%
c - 76.55 686 33 21 2461 84165 10955 60% 21 158421 1249 23%
c s 77.89 686 33 21 2565 85403 11869 60% 21 158335 1249 23%
c v 79.52 686 33 21 2565 85403 11869 60% 21 158316 1249 23%
c w 79.65 686 33 21 2565 85403 11869 60% 21 158316 1249 23%
c s 80.14 686 33 21 2565 85403 11869 60% 21 158261 1249 23%
c # 85.62 686 33 21 2946 91029 16129 60% 22 158261 1249 23%
c - 86.10 686 33 22 2946 92087 11958 60% 21 158261 1249 23%
c - 90.77 686 31 23 3157 100363 12562 60% 21 158261 1249 23%
c p 93.53 686 30 23 3188 105001 19981 60% 20 158261 1245 23%
c d 93.67 686 30 23 3188 105001 19648 60% 20 151129 1244 23%
c B 93.77 686 30 23 3188 105034 19667 60% 20 151129 1244 23%
c - 95.07 686 29 24 3320 109000 12612 60% 20 151129 1244 23%
c - 97.50 686 28 25 3465 117846 13111 60% 20 151129 1244 23%
c W 99.26 686 28 25 3485 120036 14576 60% 20 151129 1244 23%
c } 102.35 686 27 25 3709 127005 18866 60% 20 151129 1244 23%
c [ 102.35 686 30 25 3709 127005 18866 75% 26 151129 1244 23%
c - 102.40 686 30 26 3709 127046 13138 75% 26 151129 1244 23%
c B 104.39 686 29 26 3713 136038 19079 72% 24 151129 1244 23%
c - 104.63 686 29 27 3714 136598 13567 72% 24 151129 1244 23%
c 
c  seconds    reductions       redundant   irredundant
c           MB     restarts           trail       variables
c            level      conflicts         glue         remaining
c 
c p 107.43 686 29 27 3716 140002 20618 71% 25 151129 1219 23%
c d 107.62 686 29 27 3716 140002 20282 71% 25 150686 1218 23%
c d 107.70 686 29 27 3716 140002 20279 71% 25 150684 1217 23%
c s 108.42 686 29 27 3716 141290 21140 71% 25 150536 1217 23%
c v 109.71 686 29 27 3716 141290 21140 71% 25 150500 1217 23%
c w 109.77 686 29 27 3716 141290 21139 71% 25 150500 1217 23%
c t 109.78 686 29 27 3716 141290 21129 71% 25 150498 1217 23%
c e 110.05 686 29 27 3716 141290 20720 71% 25 150319 1142 21%
c s 110.33 686 29 27 3716 141290 20720 71% 25 150261 1142 21%
c - 112.27 686 28 28 3717 146504 13951 65% 24 150261 1142 21%
c W 114.61 686 28 28 3718 153040 18234 64% 24 150261 1142 21%
c - 115.78 686 28 29 3718 156745 14168 64% 24 150261 1142 21%
c - 118.93 686 28 30 3718 167336 14827 64% 24 150261 1142 21%
c I 120.28 687 27 30 3721 171041 17019 64% 24 150261 1142 21%
c ] 120.41 687 27 30 3721 171289 17209 64% 24 150261 1142 21%
c 1 120.41 687 27 30 3721 171289 17209 64% 24 150261 1142 21%
c 
c --- [ writing output ] -----------------------------------------------------
c 
c writing simplified CNF to DIMACS file 'simp/26.cubes638.adj.simp1'
c * 120.41 687 27 30 3721 171289 17209 64% 24 150261 1142 21%
c opening file to write 'simp/26.cubes638.adj.simp1'
c writing 'p cnf 5320 150261' header
c closing file 'simp/26.cubes638.adj.simp1'
c after writing 59278929 bytes 56.5 MB
c wrote 150261 clauses in 0.36 seconds process time
c 
c --- [ writing extension ] --------------------------------------------------
c 
c writing extension stack to 'simp/26.cubes638.adj.ext1'
c opening file to write 'simp/26.cubes638.adj.ext1'
c closing file 'simp/26.cubes638.adj.ext1'
c after writing 172241 bytes 0.2 MB
c wrote 7637 witnesses in 0.00 seconds process time
c 
c --- [ result ] -------------------------------------------------------------
c 
s SATISFIABLE
c 
c --- [ run-time profiling ] -------------------------------------------------
c 
c process time taken by individual solving procedures
c (percentage relative to process time for solving)
c 
c        92.08   81.90% search
c        62.80   55.85% unstable
c        26.86   23.89% stable
c        20.35   18.10% simplify
c         9.03    8.03% probe
c         7.98    7.09% parse
c         6.45    5.74% vivify
c         2.11    1.88% elim
c         1.71    1.52% walk
c         1.35    1.20% subsume
c         0.71    0.63% lucky
c         0.18    0.16% ternary
c   =================================
c       112.43   93.09% solve
c 
c last line shows process time for solving
c (percentage relative to total process time)
c 
c --- [ statistics ] ---------------------------------------------------------
c 
c chronological:             28901        16.87 %  of conflicts
c conflicts:                171289      1523.45    per second
c decisions:                383889      3414.33    per second
c eliminated:                 2719        51.11 %  of all variables
c fixed:                      1449        27.24 %  of all variables
c learned:                  167821        97.98 %  per conflict
c learned_lits:           35324060       100.00 %  learned literals
c minimized:                     0         0.00 %  learned literals
c shrunken:               21951785        62.14 %  learned literals
c minishrunken:            2854607         8.08 %  learned literals
c propagations:           15443367         0.14 M  per second
c reduced:                   97736        57.06 %  per conflict
c rephased:                     18      9516.06    interval
c restarts:                   3721        46.03    interval
c stabilizing:                   4        50.38 %  of conflicts
c substituted:                  10         0.19 %  of all variables
c subsumed:                  55642         2.44 %  of all clauses
c strengthened:              22452         0.99 %  of all clauses
c ternary:                    6930         0.54 %  of resolved
c vivified:                    243         0.01 %  of all clauses
c walked:                        5     34257.80    interval
c weakened:                   6188         3.09    average size
c 
c seconds are measured in process time for solving
c 
c --- [ resources ] ----------------------------------------------------------
c 
c total process time since initialization:       120.78    seconds
c total real time since initialization:          121.23    seconds
c maximum resident set size of process:          910.05    MB
c 
c --- [ shutting down ] ------------------------------------------------------
c 
c exit 10
WARNING! DIMACS header mismatch: wrong number of variables.
============================[ Problem Statistics ]=============================
|                                                                             |
|  Number of variables:          3425                                         |
|  Number of clauses:          150265                                         |
|  Parse time:                   0.84 s                                       |
|  Simplification time:          0.02 s                                       |
|                                                                             |
============================[ Search Statistics ]====================================================
| Conflicts |          ORIGINAL         |          LEARNT          | Num Sols |      SUBGRAPHS      |
|           |    Vars  Clauses Literals |    Limit  Clauses Lit/Cl |          | Canonical Noncanon. |
=====================================================================================================
|       102 |    3347   150267 13289963 |     2000      102    167 |        0 |        16         2 |
|       252 |    3347   150267 13289963 |     2000      252    131 |        0 |        25         2 |
|       482 |    3347   150272 13290104 |     2000      482    124 |        0 |        34         7 |
|       836 |    3347   150289 13290433 |     2000      836    116 |        0 |        45        24 |
|      1351 |    3347   150298 13290689 |     2000     1351    113 |        0 |        59        33 |
|      2136 |    3347   150324 13291244 |     3605     1141     68 |        0 |        77        59 |
|      3293 |    3347   150342 13291570 |     3605     2298     88 |        0 |       126        77 |
|      5029 |    3347   150370 13292160 |     5004     2233     64 |        0 |       180       105 |
|      7641 |    3347   150420 13293002 |     5004     4845     97 |        0 |       207       155 |
|     11544 |    3347   150479 13294138 |     6302     6246     91 |        0 |       270       214 |
|     17618 |    3347   150787 13300025 |     8780     5398     68 |        0 |       436       522 |
|     26592 |    3347   151112 13307059 |     9992     9984     80 |        0 |       609       847 |
|     39951 |    3347   151497 13315102 |    13609     6560     31 |        0 |       766      1232 |
|     59869 |    3347   151954 13323023 |    16005    12274     60 |        0 |       934      1689 |
|     90717 |    3347   153610 13349975 |    19618    17335     70 |        0 |      1284      3345 |
|    135634 |    3347   154738 13372990 |    24412    19446     55 |        0 |      1638      4473 |
|    202580 |    3347   156000 13398701 |    30413    19393     48 |        0 |      2057      5735 |
|    301870 |    3347   156764 13415938 |    37613    18483     31 |        0 |      2426      6499 |
|    450655 |    3347   157760 13440944 |    46018    23073     35 |        0 |      2732      7495 |
|    674022 |    3347   159444 13477082 |    55609    45631     62 |        0 |      3421      9179 |
|   1025500 |    3347   178397 13814736 |    68817    58317     71 |        0 |      7133     28132 |
|   1527463 |    3347   181572 13892519 |    84417    66280     64 |        0 |      8327     31307 |
|   2283543 |    3347   189470 14082206 |   103622    75165     62 |        0 |     10664     39205 |
|   3419829 |    3347   203482 14376297 |   126416   124645     74 |        0 |     14669     53217 |
|   5118251 |    3347   218493 14658660 |   155219   140670     73 |        0 |     18805     68228 |
|   7663983 |    3347   239109 15016318 |   191215    97398     37 |        0 |     24440     88844 |
|  11501978 |    3346   187259 12199892 |   221235   220413     72 |        0 |     34922    139164 |
=====================================================================================================
Number of solutions   : 0
Canonical subgraphs   : 37640          (28 /sec)
          order  3    : 1              (200000 /sec)
          order  4    : 1              (500000 /sec)
          order  5    : 1              (250000 /sec)
          order  6    : 1              (52632 /sec)
          order  7    : 2              (10050 /sec)
          order  8    : 4              (2090 /sec)
          order  9    : 12             (541 /sec)
          order 10    : 56             (170 /sec)
          order 11    : 298            (59 /sec)
          order 12    : 1357           (26 /sec)
          order 13    : 5922           (24 /sec)
          order 14    : 19274          (29 /sec)
          order 15    : 10161          (29 /sec)
          order 16    : 338            (24 /sec)
          order 17    : 74             (19 /sec)
          order 18    : 44             (24 /sec)
          order 19    : 46             (23 /sec)
          order 20    : 48             (22 /sec)
          order 21    : 0              (-nan /sec)
Noncanonical subgraphs: 159811         (1386 /sec)
          order  3    : 0              (-nan /sec)
          order  4    : 0              (-nan /sec)
          order  5    : 0              (-nan /sec)
          order  6    : 0              (-nan /sec)
          order  7    : 0              (-nan /sec)
          order  8    : 0              (-nan /sec)
          order  9    : 0              (-nan /sec)
          order 10    : 0              (-nan /sec)
          order 11    : 0              (-nan /sec)
          order 12    : 0              (-nan /sec)
          order 13    : 27757          (3320 /sec)
          order 14    : 113504         (1346 /sec)
          order 15    : 16489          (1504 /sec)
          order 16    : 1998           (216 /sec)
          order 17    : 15             (137 /sec)
          order 18    : 0              (-nan /sec)
          order 19    : 0              (-nan /sec)
          order 20    : 0              (-nan /sec)
Canonicity checking   : 1340.14 s
Noncanonicity checking: 115.333 s
Total canonicity time : 1455.48 s
database reductions   : 204
restarts              : 19177
conflicts             : 12922120       (2533 /sec)
decisions             : 16395622       (0.00 % random) (3214 /sec)
propagations          : 744082507      (145875 /sec)
conflict literals     : 1420706077     (56.05 % deleted)
actual reward         : 0.212380
Memory used           : 352.00 MB
CPU time              : 5100.83 s

UNSATISFIABLE
